2
150 3
36
31 1 1
33 1 2
34 1 2
36 1 1
37 1 1
40 1 2
41 1 2
43 1 1
44 1 1
45 1 2
47 1 1
48 1 1
49 1 1
51 1 1
53 1 1
54 1 2
56 1 1
58 1 3
61 1 2
64 1 1
67 1 1
68 1 1
70 1 1
74 1 1
77 1 2
79 1 1
80 1 2
83 1 2
84 1 2
85 1 1
86 1 1
88 1 2
90 1 1
93 1 1
96 1 1
100 1 1
